(declare-const X String)
; www\.iggsey\.com\sX-Mailer\x3a[^\n\r]*on\x3Acom\x3E2\x2E41Client
(assert (str.in_re X (re.++ (str.to_re "www.iggsey.com") (re.union (str.to_re " ") (str.to_re "\u{9}") (str.to_re "\u{a}") (str.to_re "\u{c}") (str.to_re "\u{d}")) (str.to_re "X-Mailer:\u{13}") (re.* (re.union (str.to_re "\u{a}") (str.to_re "\u{d}"))) (str.to_re "on:com>2.41Client\u{a}"))))
; \x2Fcs\x2Fpop4\x2FUser-Agent\x3Akitwww\x2Eborlander\x2Ecom\x2Ecn
(assert (not (str.in_re X (str.to_re "/cs/pop4/User-Agent:kitwww.borlander.com.cn\u{a}"))))
; for\sinternalcyber@yahoo\x2EcomHeadersRedirectionHost\x3A
(assert (not (str.in_re X (re.++ (str.to_re "for") (re.union (str.to_re " ") (str.to_re "\u{9}") (str.to_re "\u{a}") (str.to_re "\u{c}") (str.to_re "\u{d}")) (str.to_re "internalcyber@yahoo.comHeadersRedirectionHost:\u{a}")))))
(check-sat)
